[2026-03-24T00:34:27.384Z] Pipeline "set_set_set_s008_g009" → 2026_03_24_00_34_27_set_set_set_s008_g009_max.sol
Set parameter WLSAccessID
Set parameter WLSSecret
Set parameter LicenseID to value 2792458
Set parameter LogFile to value "gurobi.log"
Using license file /root/gurobi.lic
Academic license 2792458 - for non-commercial use only - registered to an___@studenti.unipg.it

Gurobi Optimizer version 13.0.1 build v13.0.1rc0 (linux64 - "Ubuntu 24.04.4 LTS")
Copyright (c) 2026, Gurobi Optimization, LLC

Warning: Duplicate section found (read 'binary') - Is a variable name equal to an LP file format keyword?
Warning: Duplicate section found (read 'binary') - Is a variable name equal to an LP file format keyword?
Warning: Duplicate section found (read 'binary') - Is a variable name equal to an LP file format keyword?
Warning: Duplicate section found (read 'binary') - Is a variable name equal to an LP file format keyword?
Warning: Duplicate section found (read 'binary') - Is a variable name equal to an LP file format keyword?
Warning: Duplicate section found (read 'binary') - Is a variable name equal to an LP file format keyword?
Warning: Duplicate section found (read 'binary') - Is a variable name equal to an LP file format keyword?
Warning: Duplicate section found (read 'binary') - Is a variable name equal to an LP file format keyword?
Warning: Duplicate section found (read 'binary') - Is a variable name equal to an LP file format keyword?
Warning: Duplicate section found (read 'binary') - Is a variable name equal to an LP file format keyword?
Warning: Further warnings of this type will be omitted.
Read LP format model from file /root/bgw/data/uploads/2026_03_24_00_34_27_set_set_set_s008_g009_max.lp
Reading time = 0.00 seconds
: 753 rows, 126 columns, 2240 nonzeros

Using Gurobi shared library /opt/gurobi1301/linux64/lib/libgurobi.so.13.0.1

CPU model: AMD EPYC-Genoa Processor, instruction set [SSE2|AVX|AVX2|AVX512]
Thread count: 16 physical cores, 16 logical processors, using up to 16 threads

Academic license 2792458 - for non-commercial use only - registered to an___@studenti.unipg.it
Optimize a model with 753 rows, 126 columns and 2240 nonzeros (Max)
Model fingerprint: 0xe74604ae
Model has 8 linear objective coefficients
Variable types: 21 continuous, 105 integer (105 binary)
Coefficient statistics:
  Matrix range     [1e+00, 1e+01]
  Objective range  [1e+00, 1e+00]
  Bounds range     [1e+00, 1e+00]
  RHS range        [1e+00, 2e+01]

Found heuristic solution: objective 8.0000000
Presolve removed 150 rows and 29 columns
Presolve time: 0.00s
Presolved: 603 rows, 97 columns, 1879 nonzeros
Variable types: 0 continuous, 97 integer (90 binary)
Found heuristic solution: objective 10.0000000

Root relaxation: objective 3.500000e+01, 91 iterations, 0.00 seconds (0.00 work units)

    Nodes    |    Current Node    |     Objective Bounds      |     Work
 Expl Unexpl |  Obj  Depth IntInf | Incumbent    BestBd   Gap | It/Node Time

     0     0   35.00000    0   21   10.00000   35.00000   250%     -    0s
H    0     0                      19.0000000   35.00000  84.2%     -    0s
H    0     0                      22.0000000   35.00000  59.1%     -    0s
H    0     0                      23.0000000   35.00000  52.2%     -    0s
     0     0   35.00000    0   27   23.00000   35.00000  52.2%     -    0s
     0     0   35.00000    0   27   23.00000   35.00000  52.2%     -    0s
     0     0   35.00000    0   22   23.00000   35.00000  52.2%     -    0s
     0     0   35.00000    0   22   23.00000   35.00000  52.2%     -    0s
     0     0   35.00000    0   22   23.00000   35.00000  52.2%     -    0s
     0     0   34.45455    0   22   23.00000   34.45455  49.8%     -    0s
     0     0   34.45455    0   21   23.00000   34.45455  49.8%     -    0s
     0     0   34.00000    0   22   23.00000   34.00000  47.8%     -    0s
     0     0   34.00000    0   22   23.00000   34.00000  47.8%     -    0s
     0     0   34.00000    0   19   23.00000   34.00000  47.8%     -    0s
     0     0   34.00000    0   17   23.00000   34.00000  47.8%     -    0s
     0     0   34.00000    0   24   23.00000   34.00000  47.8%     -    0s
     0     0   34.00000    0   22   23.00000   34.00000  47.8%     -    0s
     0     0   33.96970    0   22   23.00000   33.96970  47.7%     -    0s
     0     0   33.96970    0   22   23.00000   33.96970  47.7%     -    0s
     0     2   33.96970    0   22   23.00000   33.96970  47.7%     -    0s

Cutting planes:
  Gomory: 1
  Cover: 5
  Inf proof: 6
  Zero half: 3

Explored 1810 nodes (34563 simplex iterations) in 0.29 seconds (0.25 work units)
Thread count was 16 (of 16 available processors)

Solution count 5: 23 22 19 ... 8

Optimal solution found (tolerance 1.00e-04)
Best objective 2.300000000000e+01, best bound 2.300000000000e+01, gap 0.0000%

Wrote result file '/root/bgw/data/results/2026_03_24_00_34_27_set_set_set_s008_g009_max.sol'

